(set-logic QF_NIA)
(set-info :source |
    Sequential equivalence checking.
    Calypto Design Systems, Inc. <www.calypto.com>
  |)
(set-info :smt-lib-version 2.0)
(set-info :category "industrial")
(set-info :status sat)
(declare-fun P_2 () Int)
(declare-fun P_3 () Int)
(declare-fun P_4 () Int)
(declare-fun P_5 () Int)
(declare-fun P_6 () Int)
(declare-fun P_7 () Int)
(declare-fun P_8 () Int)
(declare-fun P_9 () Int)
(declare-fun mux_I_95254 () Int)
(declare-fun mux_I_95285 () Int)
(declare-fun mux_I_95263 () Int)
(assert (<= 0 P_2))
(assert (<= P_2 43))
(assert (<= (* 1073741760 (- 1)) P_3))
(assert (<= P_3 (* 1 (- 1))))
(assert (<= 0 P_4))
(assert (<= P_4 3))
(assert (<= 0 P_5))
(assert (<= P_5 3))
(assert (<= 0 P_6))
(assert (<= P_6 4398046478336))
(assert (<= 0 P_7))
(assert (<= P_7 15))
(assert (<= 0 P_8))
(assert (<= P_8 67108860))
(assert (<= 0 P_9))
(assert (<= P_9 15))
(assert (<= 0 mux_I_95254))
(assert (<= mux_I_95254 4398046511103))
(assert (<= (* 1073741824 (- 1)) mux_I_95285))
(assert (<= mux_I_95285 1073741823))
(assert (<= 0 mux_I_95263))
(assert (<= mux_I_95263 15))
(declare-fun dz () Int)
(declare-fun rz () Bool)
(assert (let ((?v_0 (+ 4 P_5))) (let ((?v_1 (ite (< ?v_0 4) ?v_0 (- ?v_0 8)))) (let ((?v_2 (+ 8388608 (+ (* P_4 2097152) (ite (>= ?v_1 0) ?v_1 (+ ?v_1 2097152)))))) (let ((?v_3 (< (+ (+ (+ (+ (+ mux_I_95285 (* (* ?v_2 3) 64)) (- (* 1 (- 1)) P_6)) 1) (* mux_I_95263 P_8)) (* (* P_9 ?v_2) 4)) 0))) (= (+ (* 2 dz) 1) (- (ite (and (not (= mux_I_95254 0)) ?v_3) 1 0) (ite ?v_3 1 0))))))))
(check-sat)
(exit)
